p cnf 351 1189
c p weight -139 1 0
c p weight 139 -1 0
c p weight 143 6.12323399573676603586882014729198302312846062338790031898128063403419218957424163818359375E-17 0
c p weight -143 1 0
c p weight 144 1 0
c p weight -144 1 0
c p weight -141 1 0
c p weight 141 -1 0
c p weight -145 1 0
c p weight 145 -1 0
c p weight -147 1 0
c p weight 147 -1 0
c p weight -150 1 0
c p weight 150 -1 0
c p weight -153 1 0
c p weight 153 -1 0
c p weight -156 1 0
c p weight 156 -1 0
c p weight -159 1 0
c p weight 159 -1 0
c p weight -162 1 0
c p weight 162 -1 0
c p weight -165 1 0
c p weight 165 -1 0
c p weight -168 1 0
c p weight 168 -1 0
c p weight -171 1 0
c p weight 171 -1 0
c p weight -174 1 0
c p weight 174 -1 0
c p weight -177 1 0
c p weight 177 -1 0
c p weight -180 1 0
c p weight 180 -1 0
c p weight -183 1 0
c p weight 183 -1 0
c p weight -186 1 0
c p weight 186 -1 0
c p weight -189 1 0
c p weight 189 -1 0
c p weight -192 1 0
c p weight 192 -1 0
c p weight -195 1 0
c p weight 195 -1 0
c p weight -198 1 0
c p weight 198 -1 0
c p weight -201 1 0
c p weight 201 -1 0
c p weight -204 1 0
c p weight 204 -1 0
c p weight -207 1 0
c p weight 207 -1 0
c p weight -210 1 0
c p weight 210 -1 0
c p weight -213 1 0
c p weight 213 -1 0
c p weight -216 1 0
c p weight 216 -1 0
c p weight -219 1 0
c p weight 219 -1 0
c p weight -222 1 0
c p weight 222 -1 0
c p weight -225 1 0
c p weight 225 -1 0
c p weight -228 1 0
c p weight 228 -1 0
c p weight -231 1 0
c p weight 231 -1 0
c p weight -234 1 0
c p weight 234 -1 0
c p weight -237 1 0
c p weight 237 -1 0
c p weight -240 1 0
c p weight 240 -1 0
c p weight -243 1 0
c p weight 243 -1 0
c p weight -246 1 0
c p weight 246 -1 0
c p weight -249 1 0
c p weight 249 -1 0
c p weight -252 1 0
c p weight 252 -1 0
c p weight -255 1 0
c p weight 255 -1 0
c p weight -258 1 0
c p weight 258 -1 0
c p weight -261 1 0
c p weight 261 -1 0
c p weight -264 1 0
c p weight 264 -1 0
c p weight -267 1 0
c p weight 267 -1 0
c p weight -270 1 0
c p weight 270 -1 0
c p weight -273 1 0
c p weight 273 -1 0
c p weight -276 1 0
c p weight 276 -1 0
c p weight -279 1 0
c p weight 279 -1 0
c p weight -282 1 0
c p weight 282 -1 0
c p weight -285 1 0
c p weight 285 -1 0
c p weight -288 1 0
c p weight 288 -1 0
c p weight -291 1 0
c p weight 291 -1 0
c p weight -294 1 0
c p weight 294 -1 0
c p weight -297 1 0
c p weight 297 -1 0
c p weight -300 1 0
c p weight 300 -1 0
c p weight -303 1 0
c p weight 303 -1 0
c p weight -306 1 0
c p weight 306 -1 0
c p weight -309 1 0
c p weight 309 -1 0
c p weight -312 1 0
c p weight 312 -1 0
c p weight -315 1 0
c p weight 315 -1 0
c p weight -318 1 0
c p weight 318 -1 0
c p weight -321 1 0
c p weight 321 -1 0
c p weight -324 1 0
c p weight 324 -1 0
c p weight -327 1 0
c p weight 327 -1 0
c p weight -330 1 0
c p weight 330 -1 0
c p weight -333 1 0
c p weight 333 -1 0
c p weight -336 1 0
c p weight 336 -1 0
c p weight -339 1 0
c p weight 339 -1 0
c p weight -342 1 0
c p weight 342 -1 0
c p weight -345 1 0
c p weight 345 -1 0
c p weight -348 1 0
c p weight 348 -1 0
c p weight 351 0.5 0
c p weight -351 1 0
351 0
-137 0
-135 0
-133 0
-131 0
-129 0
-127 0
-125 0
-123 0
-121 0
-119 0
-117 0
-115 0
-113 0
-111 0
-109 0
-107 0
-105 0
-103 0
-101 0
-99 0
-97 0
-95 0
-93 0
-91 0
-89 0
-87 0
-85 0
-83 0
-81 0
-79 0
-77 0
-75 0
-73 0
-71 0
-69 0
-67 0
-65 0
-63 0
-61 0
-59 0
-57 0
-55 0
-53 0
-51 0
-49 0
-47 0
-45 0
-43 0
-41 0
-39 0
-37 0
-35 0
-33 0
-31 0
-29 0
-27 0
-25 0
-23 0
-21 0
-19 0
-17 0
-15 0
-13 0
-11 0
-9 0
-7 0
-5 0
-3 0
-1 0
-139 137 0
-139 138 0
139 -137 -138 0
140 137 -138 0
140 -137 138 0
-140 137 138 0
-140 -137 -138 0
-141 142 0
-141 140 0
-141 -137 0
141 -142 137 -140 0
142 -137 140 0
-142 137 140 0
-143 140 0
142 -143 -137 0
-142 -143 137 0
142 143 137 -140 0
-142 143 -137 -140 0
-144 140 0
142 -144 137 0
-142 -144 -137 0
142 144 -137 -140 0
-142 144 137 -140 0
-145 142 0
-145 140 0
145 -142 -140 0
146 142 -140 0
146 -142 140 0
-146 142 140 0
-146 -142 -140 0
-147 142 0
-147 136 0
-147 135 -146 0
-147 -135 146 0
147 -142 135 146 -136 0
147 -142 -135 -146 -136 0
149 142 -135 0
149 -142 135 0
-149 142 135 0
-149 -142 -135 0
148 146 -136 0
148 -146 136 0
-148 146 136 0
-148 -146 -136 0
-150 149 0
-150 134 0
-150 133 -136 0
-150 -133 136 0
150 -149 133 136 -134 0
150 -149 -133 -136 -134 0
152 149 -133 0
152 -149 133 0
-152 149 133 0
-152 -149 -133 0
151 136 -134 0
151 -136 134 0
-151 136 134 0
-151 -136 -134 0
-153 152 0
-153 132 0
-153 131 -134 0
-153 -131 134 0
153 -152 131 134 -132 0
153 -152 -131 -134 -132 0
155 152 -131 0
155 -152 131 0
-155 152 131 0
-155 -152 -131 0
154 134 -132 0
154 -134 132 0
-154 134 132 0
-154 -134 -132 0
-156 155 0
-156 130 0
-156 129 -132 0
-156 -129 132 0
156 -155 129 132 -130 0
156 -155 -129 -132 -130 0
158 155 -129 0
158 -155 129 0
-158 155 129 0
-158 -155 -129 0
157 132 -130 0
157 -132 130 0
-157 132 130 0
-157 -132 -130 0
-159 158 0
-159 128 0
-159 127 -130 0
-159 -127 130 0
159 -158 127 130 -128 0
159 -158 -127 -130 -128 0
161 158 -127 0
161 -158 127 0
-161 158 127 0
-161 -158 -127 0
160 130 -128 0
160 -130 128 0
-160 130 128 0
-160 -130 -128 0
-162 161 0
-162 126 0
-162 125 -128 0
-162 -125 128 0
162 -161 125 128 -126 0
162 -161 -125 -128 -126 0
164 161 -125 0
164 -161 125 0
-164 161 125 0
-164 -161 -125 0
163 128 -126 0
163 -128 126 0
-163 128 126 0
-163 -128 -126 0
-165 164 0
-165 124 0
-165 123 -126 0
-165 -123 126 0
165 -164 123 126 -124 0
165 -164 -123 -126 -124 0
167 164 -123 0
167 -164 123 0
-167 164 123 0
-167 -164 -123 0
166 126 -124 0
166 -126 124 0
-166 126 124 0
-166 -126 -124 0
-168 167 0
-168 122 0
-168 121 -124 0
-168 -121 124 0
168 -167 121 124 -122 0
168 -167 -121 -124 -122 0
170 167 -121 0
170 -167 121 0
-170 167 121 0
-170 -167 -121 0
169 124 -122 0
169 -124 122 0
-169 124 122 0
-169 -124 -122 0
-171 170 0
-171 120 0
-171 119 -122 0
-171 -119 122 0
171 -170 119 122 -120 0
171 -170 -119 -122 -120 0
173 170 -119 0
173 -170 119 0
-173 170 119 0
-173 -170 -119 0
172 122 -120 0
172 -122 120 0
-172 122 120 0
-172 -122 -120 0
-174 173 0
-174 118 0
-174 117 -120 0
-174 -117 120 0
174 -173 117 120 -118 0
174 -173 -117 -120 -118 0
176 173 -117 0
176 -173 117 0
-176 173 117 0
-176 -173 -117 0
175 120 -118 0
175 -120 118 0
-175 120 118 0
-175 -120 -118 0
-177 176 0
-177 116 0
-177 115 -118 0
-177 -115 118 0
177 -176 115 118 -116 0
177 -176 -115 -118 -116 0
179 176 -115 0
179 -176 115 0
-179 176 115 0
-179 -176 -115 0
178 118 -116 0
178 -118 116 0
-178 118 116 0
-178 -118 -116 0
-180 179 0
-180 114 0
-180 113 -116 0
-180 -113 116 0
180 -179 113 116 -114 0
180 -179 -113 -116 -114 0
182 179 -113 0
182 -179 113 0
-182 179 113 0
-182 -179 -113 0
181 116 -114 0
181 -116 114 0
-181 116 114 0
-181 -116 -114 0
-183 182 0
-183 112 0
-183 111 -114 0
-183 -111 114 0
183 -182 111 114 -112 0
183 -182 -111 -114 -112 0
185 182 -111 0
185 -182 111 0
-185 182 111 0
-185 -182 -111 0
184 114 -112 0
184 -114 112 0
-184 114 112 0
-184 -114 -112 0
-186 185 0
-186 110 0
-186 109 -112 0
-186 -109 112 0
186 -185 109 112 -110 0
186 -185 -109 -112 -110 0
188 185 -109 0
188 -185 109 0
-188 185 109 0
-188 -185 -109 0
187 112 -110 0
187 -112 110 0
-187 112 110 0
-187 -112 -110 0
-189 188 0
-189 108 0
-189 107 -110 0
-189 -107 110 0
189 -188 107 110 -108 0
189 -188 -107 -110 -108 0
191 188 -107 0
191 -188 107 0
-191 188 107 0
-191 -188 -107 0
190 110 -108 0
190 -110 108 0
-190 110 108 0
-190 -110 -108 0
-192 191 0
-192 106 0
-192 105 -108 0
-192 -105 108 0
192 -191 105 108 -106 0
192 -191 -105 -108 -106 0
194 191 -105 0
194 -191 105 0
-194 191 105 0
-194 -191 -105 0
193 108 -106 0
193 -108 106 0
-193 108 106 0
-193 -108 -106 0
-195 194 0
-195 104 0
-195 103 -106 0
-195 -103 106 0
195 -194 103 106 -104 0
195 -194 -103 -106 -104 0
197 194 -103 0
197 -194 103 0
-197 194 103 0
-197 -194 -103 0
196 106 -104 0
196 -106 104 0
-196 106 104 0
-196 -106 -104 0
-198 197 0
-198 102 0
-198 101 -104 0
-198 -101 104 0
198 -197 101 104 -102 0
198 -197 -101 -104 -102 0
200 197 -101 0
200 -197 101 0
-200 197 101 0
-200 -197 -101 0
199 104 -102 0
199 -104 102 0
-199 104 102 0
-199 -104 -102 0
-201 200 0
-201 100 0
-201 99 -102 0
-201 -99 102 0
201 -200 99 102 -100 0
201 -200 -99 -102 -100 0
203 200 -99 0
203 -200 99 0
-203 200 99 0
-203 -200 -99 0
202 102 -100 0
202 -102 100 0
-202 102 100 0
-202 -102 -100 0
-204 203 0
-204 98 0
-204 97 -100 0
-204 -97 100 0
204 -203 97 100 -98 0
204 -203 -97 -100 -98 0
206 203 -97 0
206 -203 97 0
-206 203 97 0
-206 -203 -97 0
205 100 -98 0
205 -100 98 0
-205 100 98 0
-205 -100 -98 0
-207 206 0
-207 96 0
-207 95 -98 0
-207 -95 98 0
207 -206 95 98 -96 0
207 -206 -95 -98 -96 0
209 206 -95 0
209 -206 95 0
-209 206 95 0
-209 -206 -95 0
208 98 -96 0
208 -98 96 0
-208 98 96 0
-208 -98 -96 0
-210 209 0
-210 94 0
-210 93 -96 0
-210 -93 96 0
210 -209 93 96 -94 0
210 -209 -93 -96 -94 0
212 209 -93 0
212 -209 93 0
-212 209 93 0
-212 -209 -93 0
211 96 -94 0
211 -96 94 0
-211 96 94 0
-211 -96 -94 0
-213 212 0
-213 92 0
-213 91 -94 0
-213 -91 94 0
213 -212 91 94 -92 0
213 -212 -91 -94 -92 0
215 212 -91 0
215 -212 91 0
-215 212 91 0
-215 -212 -91 0
214 94 -92 0
214 -94 92 0
-214 94 92 0
-214 -94 -92 0
-216 215 0
-216 90 0
-216 89 -92 0
-216 -89 92 0
216 -215 89 92 -90 0
216 -215 -89 -92 -90 0
218 215 -89 0
218 -215 89 0
-218 215 89 0
-218 -215 -89 0
217 92 -90 0
217 -92 90 0
-217 92 90 0
-217 -92 -90 0
-219 218 0
-219 88 0
-219 87 -90 0
-219 -87 90 0
219 -218 87 90 -88 0
219 -218 -87 -90 -88 0
221 218 -87 0
221 -218 87 0
-221 218 87 0
-221 -218 -87 0
220 90 -88 0
220 -90 88 0
-220 90 88 0
-220 -90 -88 0
-222 221 0
-222 86 0
-222 85 -88 0
-222 -85 88 0
222 -221 85 88 -86 0
222 -221 -85 -88 -86 0
224 221 -85 0
224 -221 85 0
-224 221 85 0
-224 -221 -85 0
223 88 -86 0
223 -88 86 0
-223 88 86 0
-223 -88 -86 0
-225 224 0
-225 84 0
-225 83 -86 0
-225 -83 86 0
225 -224 83 86 -84 0
225 -224 -83 -86 -84 0
227 224 -83 0
227 -224 83 0
-227 224 83 0
-227 -224 -83 0
226 86 -84 0
226 -86 84 0
-226 86 84 0
-226 -86 -84 0
-228 227 0
-228 82 0
-228 81 -84 0
-228 -81 84 0
228 -227 81 84 -82 0
228 -227 -81 -84 -82 0
230 227 -81 0
230 -227 81 0
-230 227 81 0
-230 -227 -81 0
229 84 -82 0
229 -84 82 0
-229 84 82 0
-229 -84 -82 0
-231 230 0
-231 80 0
-231 79 -82 0
-231 -79 82 0
231 -230 79 82 -80 0
231 -230 -79 -82 -80 0
233 230 -79 0
233 -230 79 0
-233 230 79 0
-233 -230 -79 0
232 82 -80 0
232 -82 80 0
-232 82 80 0
-232 -82 -80 0
-234 233 0
-234 78 0
-234 77 -80 0
-234 -77 80 0
234 -233 77 80 -78 0
234 -233 -77 -80 -78 0
236 233 -77 0
236 -233 77 0
-236 233 77 0
-236 -233 -77 0
235 80 -78 0
235 -80 78 0
-235 80 78 0
-235 -80 -78 0
-237 236 0
-237 76 0
-237 75 -78 0
-237 -75 78 0
237 -236 75 78 -76 0
237 -236 -75 -78 -76 0
239 236 -75 0
239 -236 75 0
-239 236 75 0
-239 -236 -75 0
238 78 -76 0
238 -78 76 0
-238 78 76 0
-238 -78 -76 0
-240 239 0
-240 74 0
-240 73 -76 0
-240 -73 76 0
240 -239 73 76 -74 0
240 -239 -73 -76 -74 0
242 239 -73 0
242 -239 73 0
-242 239 73 0
-242 -239 -73 0
241 76 -74 0
241 -76 74 0
-241 76 74 0
-241 -76 -74 0
-243 242 0
-243 72 0
-243 71 -74 0
-243 -71 74 0
243 -242 71 74 -72 0
243 -242 -71 -74 -72 0
245 242 -71 0
245 -242 71 0
-245 242 71 0
-245 -242 -71 0
244 74 -72 0
244 -74 72 0
-244 74 72 0
-244 -74 -72 0
-246 245 0
-246 70 0
-246 69 -72 0
-246 -69 72 0
246 -245 69 72 -70 0
246 -245 -69 -72 -70 0
248 245 -69 0
248 -245 69 0
-248 245 69 0
-248 -245 -69 0
247 72 -70 0
247 -72 70 0
-247 72 70 0
-247 -72 -70 0
-249 248 0
-249 68 0
-249 67 -70 0
-249 -67 70 0
249 -248 67 70 -68 0
249 -248 -67 -70 -68 0
251 248 -67 0
251 -248 67 0
-251 248 67 0
-251 -248 -67 0
250 70 -68 0
250 -70 68 0
-250 70 68 0
-250 -70 -68 0
-252 251 0
-252 66 0
-252 65 -68 0
-252 -65 68 0
252 -251 65 68 -66 0
252 -251 -65 -68 -66 0
254 251 -65 0
254 -251 65 0
-254 251 65 0
-254 -251 -65 0
253 68 -66 0
253 -68 66 0
-253 68 66 0
-253 -68 -66 0
-255 254 0
-255 64 0
-255 63 -66 0
-255 -63 66 0
255 -254 63 66 -64 0
255 -254 -63 -66 -64 0
257 254 -63 0
257 -254 63 0
-257 254 63 0
-257 -254 -63 0
256 66 -64 0
256 -66 64 0
-256 66 64 0
-256 -66 -64 0
-258 257 0
-258 62 0
-258 61 -64 0
-258 -61 64 0
258 -257 61 64 -62 0
258 -257 -61 -64 -62 0
260 257 -61 0
260 -257 61 0
-260 257 61 0
-260 -257 -61 0
259 64 -62 0
259 -64 62 0
-259 64 62 0
-259 -64 -62 0
-261 260 0
-261 60 0
-261 59 -62 0
-261 -59 62 0
261 -260 59 62 -60 0
261 -260 -59 -62 -60 0
263 260 -59 0
263 -260 59 0
-263 260 59 0
-263 -260 -59 0
262 62 -60 0
262 -62 60 0
-262 62 60 0
-262 -62 -60 0
-264 263 0
-264 58 0
-264 57 -60 0
-264 -57 60 0
264 -263 57 60 -58 0
264 -263 -57 -60 -58 0
266 263 -57 0
266 -263 57 0
-266 263 57 0
-266 -263 -57 0
265 60 -58 0
265 -60 58 0
-265 60 58 0
-265 -60 -58 0
-267 266 0
-267 56 0
-267 55 -58 0
-267 -55 58 0
267 -266 55 58 -56 0
267 -266 -55 -58 -56 0
269 266 -55 0
269 -266 55 0
-269 266 55 0
-269 -266 -55 0
268 58 -56 0
268 -58 56 0
-268 58 56 0
-268 -58 -56 0
-270 269 0
-270 54 0
-270 53 -56 0
-270 -53 56 0
270 -269 53 56 -54 0
270 -269 -53 -56 -54 0
272 269 -53 0
272 -269 53 0
-272 269 53 0
-272 -269 -53 0
271 56 -54 0
271 -56 54 0
-271 56 54 0
-271 -56 -54 0
-273 272 0
-273 52 0
-273 51 -54 0
-273 -51 54 0
273 -272 51 54 -52 0
273 -272 -51 -54 -52 0
275 272 -51 0
275 -272 51 0
-275 272 51 0
-275 -272 -51 0
274 54 -52 0
274 -54 52 0
-274 54 52 0
-274 -54 -52 0
-276 275 0
-276 50 0
-276 49 -52 0
-276 -49 52 0
276 -275 49 52 -50 0
276 -275 -49 -52 -50 0
278 275 -49 0
278 -275 49 0
-278 275 49 0
-278 -275 -49 0
277 52 -50 0
277 -52 50 0
-277 52 50 0
-277 -52 -50 0
-279 278 0
-279 48 0
-279 47 -50 0
-279 -47 50 0
279 -278 47 50 -48 0
279 -278 -47 -50 -48 0
281 278 -47 0
281 -278 47 0
-281 278 47 0
-281 -278 -47 0
280 50 -48 0
280 -50 48 0
-280 50 48 0
-280 -50 -48 0
-282 281 0
-282 46 0
-282 45 -48 0
-282 -45 48 0
282 -281 45 48 -46 0
282 -281 -45 -48 -46 0
284 281 -45 0
284 -281 45 0
-284 281 45 0
-284 -281 -45 0
283 48 -46 0
283 -48 46 0
-283 48 46 0
-283 -48 -46 0
-285 284 0
-285 44 0
-285 43 -46 0
-285 -43 46 0
285 -284 43 46 -44 0
285 -284 -43 -46 -44 0
287 284 -43 0
287 -284 43 0
-287 284 43 0
-287 -284 -43 0
286 46 -44 0
286 -46 44 0
-286 46 44 0
-286 -46 -44 0
-288 287 0
-288 42 0
-288 41 -44 0
-288 -41 44 0
288 -287 41 44 -42 0
288 -287 -41 -44 -42 0
290 287 -41 0
290 -287 41 0
-290 287 41 0
-290 -287 -41 0
289 44 -42 0
289 -44 42 0
-289 44 42 0
-289 -44 -42 0
-291 290 0
-291 40 0
-291 39 -42 0
-291 -39 42 0
291 -290 39 42 -40 0
291 -290 -39 -42 -40 0
293 290 -39 0
293 -290 39 0
-293 290 39 0
-293 -290 -39 0
292 42 -40 0
292 -42 40 0
-292 42 40 0
-292 -42 -40 0
-294 293 0
-294 38 0
-294 37 -40 0
-294 -37 40 0
294 -293 37 40 -38 0
294 -293 -37 -40 -38 0
296 293 -37 0
296 -293 37 0
-296 293 37 0
-296 -293 -37 0
295 40 -38 0
295 -40 38 0
-295 40 38 0
-295 -40 -38 0
-297 296 0
-297 36 0
-297 35 -38 0
-297 -35 38 0
297 -296 35 38 -36 0
297 -296 -35 -38 -36 0
299 296 -35 0
299 -296 35 0
-299 296 35 0
-299 -296 -35 0
298 38 -36 0
298 -38 36 0
-298 38 36 0
-298 -38 -36 0
-300 299 0
-300 34 0
-300 33 -36 0
-300 -33 36 0
300 -299 33 36 -34 0
300 -299 -33 -36 -34 0
302 299 -33 0
302 -299 33 0
-302 299 33 0
-302 -299 -33 0
301 36 -34 0
301 -36 34 0
-301 36 34 0
-301 -36 -34 0
-303 302 0
-303 32 0
-303 31 -34 0
-303 -31 34 0
303 -302 31 34 -32 0
303 -302 -31 -34 -32 0
305 302 -31 0
305 -302 31 0
-305 302 31 0
-305 -302 -31 0
304 34 -32 0
304 -34 32 0
-304 34 32 0
-304 -34 -32 0
-306 305 0
-306 30 0
-306 29 -32 0
-306 -29 32 0
306 -305 29 32 -30 0
306 -305 -29 -32 -30 0
308 305 -29 0
308 -305 29 0
-308 305 29 0
-308 -305 -29 0
307 32 -30 0
307 -32 30 0
-307 32 30 0
-307 -32 -30 0
-309 308 0
-309 28 0
-309 27 -30 0
-309 -27 30 0
309 -308 27 30 -28 0
309 -308 -27 -30 -28 0
311 308 -27 0
311 -308 27 0
-311 308 27 0
-311 -308 -27 0
310 30 -28 0
310 -30 28 0
-310 30 28 0
-310 -30 -28 0
-312 311 0
-312 26 0
-312 25 -28 0
-312 -25 28 0
312 -311 25 28 -26 0
312 -311 -25 -28 -26 0
314 311 -25 0
314 -311 25 0
-314 311 25 0
-314 -311 -25 0
313 28 -26 0
313 -28 26 0
-313 28 26 0
-313 -28 -26 0
-315 314 0
-315 24 0
-315 23 -26 0
-315 -23 26 0
315 -314 23 26 -24 0
315 -314 -23 -26 -24 0
317 314 -23 0
317 -314 23 0
-317 314 23 0
-317 -314 -23 0
316 26 -24 0
316 -26 24 0
-316 26 24 0
-316 -26 -24 0
-318 317 0
-318 22 0
-318 21 -24 0
-318 -21 24 0
318 -317 21 24 -22 0
318 -317 -21 -24 -22 0
320 317 -21 0
320 -317 21 0
-320 317 21 0
-320 -317 -21 0
319 24 -22 0
319 -24 22 0
-319 24 22 0
-319 -24 -22 0
-321 320 0
-321 20 0
-321 19 -22 0
-321 -19 22 0
321 -320 19 22 -20 0
321 -320 -19 -22 -20 0
323 320 -19 0
323 -320 19 0
-323 320 19 0
-323 -320 -19 0
322 22 -20 0
322 -22 20 0
-322 22 20 0
-322 -22 -20 0
-324 323 0
-324 18 0
-324 17 -20 0
-324 -17 20 0
324 -323 17 20 -18 0
324 -323 -17 -20 -18 0
326 323 -17 0
326 -323 17 0
-326 323 17 0
-326 -323 -17 0
325 20 -18 0
325 -20 18 0
-325 20 18 0
-325 -20 -18 0
-327 326 0
-327 16 0
-327 15 -18 0
-327 -15 18 0
327 -326 15 18 -16 0
327 -326 -15 -18 -16 0
329 326 -15 0
329 -326 15 0
-329 326 15 0
-329 -326 -15 0
328 18 -16 0
328 -18 16 0
-328 18 16 0
-328 -18 -16 0
-330 329 0
-330 14 0
-330 13 -16 0
-330 -13 16 0
330 -329 13 16 -14 0
330 -329 -13 -16 -14 0
332 329 -13 0
332 -329 13 0
-332 329 13 0
-332 -329 -13 0
331 16 -14 0
331 -16 14 0
-331 16 14 0
-331 -16 -14 0
-333 332 0
-333 12 0
-333 11 -14 0
-333 -11 14 0
333 -332 11 14 -12 0
333 -332 -11 -14 -12 0
335 332 -11 0
335 -332 11 0
-335 332 11 0
-335 -332 -11 0
334 14 -12 0
334 -14 12 0
-334 14 12 0
-334 -14 -12 0
-336 335 0
-336 10 0
-336 9 -12 0
-336 -9 12 0
336 -335 9 12 -10 0
336 -335 -9 -12 -10 0
338 335 -9 0
338 -335 9 0
-338 335 9 0
-338 -335 -9 0
337 12 -10 0
337 -12 10 0
-337 12 10 0
-337 -12 -10 0
-339 338 0
-339 8 0
-339 7 -10 0
-339 -7 10 0
339 -338 7 10 -8 0
339 -338 -7 -10 -8 0
341 338 -7 0
341 -338 7 0
-341 338 7 0
-341 -338 -7 0
340 10 -8 0
340 -10 8 0
-340 10 8 0
-340 -10 -8 0
-342 341 0
-342 6 0
-342 5 -8 0
-342 -5 8 0
342 -341 5 8 -6 0
342 -341 -5 -8 -6 0
344 341 -5 0
344 -341 5 0
-344 341 5 0
-344 -341 -5 0
343 8 -6 0
343 -8 6 0
-343 8 6 0
-343 -8 -6 0
-345 344 0
-345 4 0
-345 3 -6 0
-345 -3 6 0
345 -344 3 6 -4 0
345 -344 -3 -6 -4 0
347 344 -3 0
347 -344 3 0
-347 344 3 0
-347 -344 -3 0
346 6 -4 0
346 -6 4 0
-346 6 4 0
-346 -6 -4 0
-348 347 0
-348 2 0
-348 1 -4 0
-348 -1 4 0
348 -347 1 4 -2 0
348 -347 -1 -4 -2 0
350 347 -1 0
350 -347 1 0
-350 347 1 0
-350 -347 -1 0
349 4 -2 0
349 -4 2 0
-349 4 2 0
-349 -4 -2 0
-350 0
-347 0
-349 0
-344 0
-346 0
-341 0
-343 0
-338 0
-340 0
-335 0
-337 0
-332 0
-334 0
-329 0
-331 0
-326 0
-328 0
-323 0
-325 0
-320 0
-322 0
-317 0
-319 0
-314 0
-316 0
-311 0
-313 0
-308 0
-310 0
-305 0
-307 0
-302 0
-304 0
-299 0
-301 0
-296 0
-298 0
-293 0
-295 0
-290 0
-292 0
-287 0
-289 0
-284 0
-286 0
-281 0
-283 0
-278 0
-280 0
-275 0
-277 0
-272 0
-274 0
-269 0
-271 0
-266 0
-268 0
-263 0
-265 0
-260 0
-262 0
-257 0
-259 0
-254 0
-256 0
-251 0
-253 0
-248 0
-250 0
-245 0
-247 0
-242 0
-244 0
-239 0
-241 0
-236 0
-238 0
-233 0
-235 0
-230 0
-232 0
-227 0
-229 0
-224 0
-226 0
-221 0
-223 0
-218 0
-220 0
-215 0
-217 0
-212 0
-214 0
-209 0
-211 0
-206 0
-208 0
-203 0
-205 0
-200 0
-202 0
-197 0
-199 0
-194 0
-196 0
-191 0
-193 0
-188 0
-190 0
-185 0
-187 0
-182 0
-184 0
-179 0
-181 0
-176 0
-178 0
-173 0
-175 0
-170 0
-172 0
-167 0
-169 0
-164 0
-166 0
-161 0
-163 0
-158 0
-160 0
-155 0
-157 0
-152 0
-154 0
-149 0
-151 0
-142 0
-148 0
